WARNING: for repeatability, setting FPU to use double precision
============================[ Problem Statistics ]=============================
|                                                                             |
|  Number of variables:            50                                         |
|  Number of clauses:             218                                         |
|  Parse time:                   0.00 s                                       |
|                                                                             |
============================[ Search Statistics ]==============================
| Conflicts |          ORIGINAL         |          LEARNT          | Progress |
|           |    Vars  Clauses Literals |    Limit  Clauses Lit/Cl |          |
===============================================================================
===============================================================================
restarts              : 1
conflicts             : 56             (38647 /sec)
decisions             : 66             (0.00 % random) (45549 /sec)
propagations          : 728            (502415 /sec)
conflict literals     : 198            (15.74 % deleted)
Memory used           : 20.00 MB
CPU time              : 0.001449 s

UNSATISFIABLE
